NAME : mtspf.pid19596.gtsp.322122717.tour
COMMENT : Length = 322122717
COMMENT : Found by LKH [Keld Helsgaun] Sun Jan  5 00:02:20 2025
TYPE : TOUR
DIMENSION : 180
TOUR_SECTION
1
84
81
82
83
33
34
35
36
125
126
127
128
42
43
44
41
85
86
87
88
89
90
91
92
9
175
176
173
174
105
106
107
108
50
51
52
49
102
103
104
101
119
120
117
118
5
138
139
140
137
6
7
8
165
166
167
168
13
179
180
177
178
14
58
59
60
57
16
31
32
29
30
146
147
148
145
25
26
27
28
93
94
95
96
17
155
156
153
154
77
78
79
80
115
116
113
114
110
111
112
109
53
54
55
56
15
62
63
64
61
22
23
24
21
130
131
132
129
123
124
121
122
2
3
67
68
65
66
133
134
135
136
4
142
143
144
141
100
97
98
99
76
73
74
75
11
171
172
169
170
10
40
37
38
39
150
151
152
149
19
45
46
47
48
12
70
71
72
69
18
158
159
160
157
163
164
161
162
20
-1
EOF
